VRPwTW.sol
Travel_Cost = 618.2

X :=
Aberdeen  Banchory    5   1
Aberdeen  Fyvie       1   1
Aberdeen  Newmill     3   1
Aberdeen  Peterhead   2   1
Aberdeen  Towie       4   1
Banchory  AberdeenEND 5   1
Clova     Dufftown    4   1
Cornhill  Newbyth     1   1
Dufftown  Huntly      4   1
Fyvie     Turiff      1   1
Huntly    AberdeenEND 4   1
Newbyth   AberdeenEND 1   1
Newmill   AberdeenEND 3   1
Peterhead Strichen    2   1
Strichen  AberdeenEND 2   1
Towie     Clova       4   1
Turiff    Cornhill    1   1
;

Visit :=
Banchory  5   1
Clova     4   1
Cornhill  1   1
Dufftown  4   1
Fyvie     1   1
Huntly    4   1
Newbyth   1   1
Newmill   3   1
Peterhead 2   1
Strichen  2   1
Towie     4   1
Turiff    1   1
;

